instances/in_40_20_7_2.dzn
n = 40;
k = 20;
h = 7;
tiles = array2d(1..n, 1..2,
[ 7,16
, 5,6
, 14,3
, 4,11
, 14,20
, 16,17
, 18,7
, 9,17
, 14,11
, 13,19
, 18,1
, 19,16
, 16,20
, 6,5
, 11,6
, 1,8
, 1,15
, 12,15
, 7,4
, 9,18
, 6,9
, 19,1
, 18,12
, 6,11
, 2,15
, 8,8
, 12,5
, 6,17
, 11,15
, 10,17
, 2,16
, 7,4
, 6,10
, 14,20
, 11,16
, 10,11
, 3,8
, 19,18
, 12,4
, 8,15
]);