instances/in_40_20_7_2.lp
#const n = 40.
#const k = 20.
#const h = 7.
tile(1,7,16).
tile(2,5,6).
tile(3,14,3).
tile(4,4,11).
tile(5,14,20).
tile(6,16,17).
tile(7,18,7).
tile(8,9,17).
tile(9,14,11).
tile(10,13,19).
tile(11,18,1).
tile(12,19,16).
tile(13,16,20).
tile(14,6,5).
tile(15,11,6).
tile(16,1,8).
tile(17,1,15).
tile(18,12,15).
tile(19,7,4).
tile(20,9,18).
tile(21,6,9).
tile(22,19,1).
tile(23,18,12).
tile(24,6,11).
tile(25,2,15).
tile(26,8,8).
tile(27,12,5).
tile(28,6,17).
tile(29,11,15).
tile(30,10,17).
tile(31,2,16).
tile(32,7,4).
tile(33,6,10).
tile(34,14,20).
tile(35,11,16).
tile(36,10,11).
tile(37,3,8).
tile(38,19,18).
tile(39,12,4).
tile(40,8,15).
